
******************************************************************************
This program contains Ipopt, a library for large-scale nonlinear optimization.
 Ipopt is released as open source code under the Eclipse Public License (EPL).
         For more information visit http://projects.coin-or.org/Ipopt

This version of Ipopt was compiled from source code available at
    https://github.com/IDAES/Ipopt as part of the Institute for the Design of
    Advanced Energy Systems Process Systems Engineering Framework (IDAES PSE
    Framework) Copyright (c) 2018-2019. See https://github.com/IDAES/idaes-pse.

This version of Ipopt was compiled using HSL, a collection of Fortran codes
    for large-scale scientific computation.  All technical papers, sales and
    publicity material resulting from use of the HSL codes within IPOPT must
    contain the following acknowledgement:
        HSL, a collection of Fortran codes for large-scale scientific
        computation. See http://www.hsl.rl.ac.uk.
******************************************************************************

This is Ipopt version 3.13.2, running with linear solver ma27.

Number of nonzeros in equality constraint Jacobian...:      914
Number of nonzeros in inequality constraint Jacobian.:        0
Number of nonzeros in Lagrangian Hessian.............:      918

Total number of variables............................:      378
                     variables with only lower bounds:      108
                variables with lower and upper bounds:      216
                     variables with only upper bounds:        0
Total number of equality constraints.................:      376
Total number of inequality constraints...............:        0
        inequality constraints with only lower bounds:        0
   inequality constraints with lower and upper bounds:        0
        inequality constraints with only upper bounds:        0

iter    objective    inf_pr   inf_du lg(mu)  ||d||  lg(rg) alpha_du alpha_pr  ls
   0  0.0000000e+00 3.24e-01 2.20e-14  -1.0 0.00e+00    -  0.00e+00 0.00e+00   0
   1  1.5708058e-01 3.51e-01 1.86e+04  -1.0 6.92e+04    -  3.11e-01 4.95e-01h  2
   2  6.4863224e-01 2.54e-02 8.32e+02  -1.0 3.85e+04    -  9.49e-01 9.90e-01h  1
   3  6.6037260e-01 3.77e-04 1.23e+01  -1.0 9.83e+02    -  9.89e-01 9.90e-01h  1
   4  6.5980158e-01 3.27e-06 1.63e-01  -1.0 8.30e+02    -  9.90e-01 9.90e-01h  1
   5  6.5896983e-01 1.50e-07 3.35e+02  -1.0 5.57e+03    -  9.90e-01 9.90e-01H  1
   6  6.5267241e-01 4.65e-08 2.76e+03  -2.5 4.59e+03    -  9.97e-01 9.97e-01H  1
   7  6.5266902e-01 2.03e-09 5.60e+07  -2.5 3.99e+01    -  1.00e+00 9.97e-01h  1
   8  6.5266902e-01 5.60e-12 1.98e+10  -2.5 1.15e-01    -  1.00e+00 9.97e-01h  1
In iteration 8, 27 Slacks too small, adjusting variable bounds
   9  6.5266902e-01 1.84e-13 7.00e+12  -2.5 3.25e-04    -  1.00e+00 9.97e-01h  1
iter    objective    inf_pr   inf_du lg(mu)  ||d||  lg(rg) alpha_du alpha_pr  ls
  10  6.5266902e-01 2.11e-13 2.83e-08  -2.5 9.36e-07    -  1.00e+00 1.00e+00h  1
  11  6.5266373e-01 1.98e-13 1.33e+08  -9.0 1.39e+02    -  1.00e+00 1.00e+00F  1
  12  6.5266373e-01 1.79e-13 6.98e-09  -9.0 2.07e-02    -  1.00e+00 1.00e+00h  1

Number of Iterations....: 12

                                   (scaled)                 (unscaled)
Objective...............:   6.5266373024418556e-01    6.5266373024418556e-01
Dual infeasibility......:   6.9849193096160889e-09    6.9849193096160889e-09
Constraint violation....:   1.7852386235972517e-13    1.7852386235972517e-13
Complementarity.........:   9.0911332378391112e-10    9.0911332378391112e-10
Overall NLP error.......:   5.2505096137711474e-12    6.9849193096160889e-09


Number of objective function evaluations             = 21
Number of objective gradient evaluations             = 13
Number of equality constraint evaluations            = 21
Number of inequality constraint evaluations          = 0
Number of equality constraint Jacobian evaluations   = 13
Number of inequality constraint Jacobian evaluations = 0
Number of Lagrangian Hessian evaluations             = 12
Total CPU secs in IPOPT (w/o function evaluations)   =      0.024
Total CPU secs in NLP function evaluations           =      0.205

EXIT: Optimal Solution Found.
